178,327
245,89
518,86
977,110
847,-107
601,366
591,406
575,512
681,826
699,524
575,512
560,494
981,406
1020,652
1214,490
681,616
385,702
444,443
718,292
885,6
300,787
342,745
601,366
607,178
518,86
427,152
635,110
718,292
1020,652
